nK = 1576;
nT = 6;
nI = 14;
L = 29;
TT = 341;
np = 1;
nc = 3;
b = [47, 69, 39, 55, 56, 51, 57, 24, 44, 43, 20, 44, 37, 62];
d = [113, 133, 92, 83, 131, 115, 133, 104, 137, 112, 30, 76, 98, 104];
m = [1.3, 2.3, 1.4, 1.1, 2.2, 2.2, 1.5, 1.7, 2.3, 1, 1.6, 2.2, 1.4, 2.2];
pt = [0.35, 0.31, 0.32, 0.29, 0.21, 0.24];
st = [16.1, 14.88, 14.4, 11.89, 10.08, 10.32];
arc = {<1, 0, 1, 1, 0, 0, 0, [1, 1, 1, 1, 1, 1]>, <2, 1, 2, 1, 0, 0, 0, [1, 1, 1, 1, 1, 1]>, <3, 2, 3, 1, 0, 0, 0, [1, 1, 1, 1, 1, 1]>, <4, 3, 4, 1, 0, 0, 0, [1, 1, 1, 1, 1, 1]>, <5, 4, 5, 1, 0, 0, 0, [1, 1, 1, 1, 1, 1]>, <6, 5, 6, 1, 0, 0, 0, [1, 1, 1, 1, 1, 1]>, <7, 6, 7, 1, 0, 0, 0, [1, 1, 1, 1, 1, 1]>, <8, 7, 8, 1, 0, 0, 0, [1, 1, 1, 1, 1, 1]>, <9, 8, 9, 1, 0, 0, 0, [1, 1, 1, 1, 1, 1]>, <10, 9, 10, 1, 0, 0, 0, [1, 1, 1, 1, 1, 1]>, <11, 10, 11, 1, 0, 0, 0, [1, 1, 1, 1, 1, 1]>, <12, 11, 12, 1, 0, 0, 0, [1, 1, 1, 1, 1, 1]>, <13, 12, 13, 1, 0, 0, 0, [1, 1, 1, 1, 1, 1]>, <14, 13, 14, 1, 0, 0, 0, [1, 1, 1, 1, 1, 1]>, <15, 14, 15, 1, 0, 0, 0, [1, 1, 1, 1, 1, 1]>, <16, 15, 16, 1, 0, 0, 0, [1, 1, 1, 1, 1, 1]>, <17, 16, 17, 1, 0, 0, 0, [1, 1, 1, 1, 1, 1]>, <18, 17, 18, 1, 0, 0, 0, [1, 1, 1, 1, 1, 1]>, <19, 18, 19, 1, 0, 0, 0, [1, 1, 1, 1, 1, 1]>, <20, 19, 20, 1, 0, 0, 0, [1, 1, 1, 1, 1, 1]>, <21, 20, 21, 1, 0, 0, 0, [1, 1, 1, 1, 1, 1]>, <22, 21, 22, 1, 0, 0, 0, [1, 1, 1, 1, 1, 1]>, <23, 22, 23, 1, 0, 0, 0, [1, 1, 1, 1, 1, 1]>, <24, 23, 24, 1, 0, 0, 0, [1, 1, 1, 1, 1, 1]>, <25, 24, 25, 1, 0, 0, 0, [1, 1, 1, 1, 1, 1]>, <26, 25, 26, 1, 0, 0, 0, [1, 1, 1, 1, 1, 1]>, <27, 26, 27, 1, 0, 0, 0, [1, 1, 1, 1, 1, 1]>, <28, 27, 28, 1, 0, 0, 0, [1, 1, 1, 1, 1, 1]>, <29, 28, 29, 1, 0, 0, 0, [1, 1, 1, 1, 1, 1]>, <30, 0, 15, 15, 1, 0, 1, [0, 1, 1, 1, 1, 0]>, <31, 1, 16, 15, 1, 0, 1, [0, 1, 1, 1, 1, 0]>, <32, 2, 17, 15, 1, 0, 1, [0, 1, 1, 1, 1, 0]>, <33, 3, 18, 15, 1, 0, 1, [0, 1, 1, 1, 1, 0]>, <34, 4, 19, 15, 1, 0, 1, [0, 1, 1, 1, 1, 0]>, <35, 5, 20, 15, 1, 0, 1, [0, 1, 1, 1, 1, 0]>, <36, 6, 21, 15, 1, 0, 1, [0, 1, 1, 1, 1, 0]>, <37, 7, 22, 15, 1, 0, 1, [0, 1, 1, 1, 1, 0]>, <38, 8, 23, 15, 1, 0, 1, [0, 1, 1, 1, 1, 0]>, <39, 9, 24, 15, 1, 0, 1, [0, 1, 1, 1, 1, 0]>, <40, 10, 25, 15, 1, 0, 1, [0, 1, 1, 1, 1, 0]>, <41, 11, 26, 15, 1, 0, 1, [0, 1, 1, 1, 1, 0]>, <42, 12, 27, 15, 1, 0, 1, [0, 1, 1, 1, 1, 0]>, <43, 13, 28, 15, 1, 0, 1, [0, 1, 1, 1, 1, 0]>, <44, 14, 29, 15, 1, 0, 1, [0, 1, 1, 1, 1, 0]>, <45, 0, 13, 13, 2, 0, 0, [1, 1, 0, 0, 1, 1]>, <46, 1, 14, 13, 2, 0, 0, [1, 1, 0, 0, 1, 1]>, <47, 2, 15, 13, 2, 0, 0, [1, 1, 0, 0, 1, 1]>, <48, 3, 16, 13, 2, 0, 0, [1, 1, 0, 0, 1, 1]>, <49, 4, 17, 13, 2, 0, 0, [1, 1, 0, 0, 1, 1]>, <50, 5, 18, 13, 2, 0, 0, [1, 1, 0, 0, 1, 1]>, <51, 7, 20, 13, 2, 0, 0, [1, 1, 0, 0, 1, 1]>, <52, 8, 21, 13, 2, 0, 0, [1, 1, 0, 0, 1, 1]>, <53, 9, 22, 13, 2, 0, 0, [1, 1, 0, 0, 1, 1]>, <54, 10, 23, 13, 2, 0, 0, [1, 1, 0, 0, 1, 1]>, <55, 11, 24, 13, 2, 0, 0, [1, 1, 0, 0, 1, 1]>, <56, 12, 25, 13, 2, 0, 0, [1, 1, 0, 0, 1, 1]>, <57, 13, 26, 13, 2, 0, 0, [1, 1, 0, 0, 1, 1]>, <58, 14, 27, 13, 2, 0, 0, [1, 1, 0, 0, 1, 1]>, <59, 15, 28, 13, 2, 0, 0, [1, 1, 0, 0, 1, 1]>, <60, 16, 29, 13, 2, 0, 0, [1, 1, 0, 0, 1, 1]>, <61, 1, 12, 11, 3, 0, 0, [1, 0, 0, 1, 1, 1]>, <62, 2, 13, 11, 3, 0, 0, [1, 0, 0, 1, 1, 1]>, <63, 3, 14, 11, 3, 0, 0, [1, 0, 0, 1, 1, 1]>, <64, 4, 15, 11, 3, 0, 0, [1, 0, 0, 1, 1, 1]>, <65, 5, 16, 11, 3, 0, 0, [1, 0, 0, 1, 1, 1]>, <66, 9, 20, 11, 3, 0, 0, [1, 0, 0, 1, 1, 1]>, <67, 10, 21, 11, 3, 0, 0, [1, 0, 0, 1, 1, 1]>, <68, 11, 22, 11, 3, 0, 0, [1, 0, 0, 1, 1, 1]>, <69, 12, 23, 11, 3, 0, 0, [1, 0, 0, 1, 1, 1]>, <70, 13, 24, 11, 3, 0, 0, [1, 0, 0, 1, 1, 1]>, <71, 14, 25, 11, 3, 0, 0, [1, 0, 0, 1, 1, 1]>, <72, 15, 26, 11, 3, 0, 0, [1, 0, 0, 1, 1, 1]>, <73, 16, 27, 11, 3, 0, 0, [1, 0, 0, 1, 1, 1]>, <74, 17, 28, 11, 3, 0, 0, [1, 0, 0, 1, 1, 1]>, <75, 18, 29, 11, 3, 0, 0, [1, 0, 0, 1, 1, 1]>, <76, 0, 12, 12, 4, 0, 0, [0, 1, 1, 1, 1, 0]>, <77, 1, 13, 12, 4, 0, 0, [0, 1, 1, 1, 1, 0]>, <78, 2, 14, 12, 4, 0, 0, [0, 1, 1, 1, 1, 0]>, <79, 3, 15, 12, 4, 0, 0, [0, 1, 1, 1, 1, 0]>, <80, 4, 16, 12, 4, 0, 0, [0, 1, 1, 1, 1, 0]>, <81, 5, 17, 12, 4, 0, 0, [0, 1, 1, 1, 1, 0]>, <82, 8, 20, 12, 4, 0, 0, [0, 1, 1, 1, 1, 0]>, <83, 9, 21, 12, 4, 0, 0, [0, 1, 1, 1, 1, 0]>, <84, 10, 22, 12, 4, 0, 0, [0, 1, 1, 1, 1, 0]>, <85, 11, 23, 12, 4, 0, 0, [0, 1, 1, 1, 1, 0]>, <86, 12, 24, 12, 4, 0, 0, [0, 1, 1, 1, 1, 0]>, <87, 13, 25, 12, 4, 0, 0, [0, 1, 1, 1, 1, 0]>, <88, 14, 26, 12, 4, 0, 0, [0, 1, 1, 1, 1, 0]>, <89, 15, 27, 12, 4, 0, 0, [0, 1, 1, 1, 1, 0]>, <90, 16, 28, 12, 4, 0, 0, [0, 1, 1, 1, 1, 0]>, <91, 17, 29, 12, 4, 0, 0, [0, 1, 1, 1, 1, 0]>, <92, 0, 14, 14, 5, 0, 1, [1, 1, 0, 0, 1, 1]>, <93, 1, 15, 14, 5, 0, 1, [1, 1, 0, 0, 1, 1]>, <94, 2, 16, 14, 5, 0, 1, [1, 1, 0, 0, 1, 1]>, <95, 3, 17, 14, 5, 0, 1, [1, 1, 0, 0, 1, 1]>, <96, 4, 18, 14, 5, 0, 1, [1, 1, 0, 0, 1, 1]>, <97, 5, 19, 14, 5, 0, 1, [1, 1, 0, 0, 1, 1]>, <98, 6, 20, 14, 5, 0, 1, [1, 1, 0, 0, 1, 1]>, <99, 7, 21, 14, 5, 0, 1, [1, 1, 0, 0, 1, 1]>, <100, 8, 22, 14, 5, 0, 1, [1, 1, 0, 0, 1, 1]>, <101, 9, 23, 14, 5, 0, 1, [1, 1, 0, 0, 1, 1]>, <102, 10, 24, 14, 5, 0, 1, [1, 1, 0, 0, 1, 1]>, <103, 11, 25, 14, 5, 0, 1, [1, 1, 0, 0, 1, 1]>, <104, 12, 26, 14, 5, 0, 1, [1, 1, 0, 0, 1, 1]>, <105, 13, 27, 14, 5, 0, 1, [1, 1, 0, 0, 1, 1]>, <106, 14, 28, 14, 5, 0, 1, [1, 1, 0, 0, 1, 1]>, <107, 15, 29, 14, 5, 0, 1, [1, 1, 0, 0, 1, 1]>, <108, 0, 14, 14, 6, 0, 1, [0, 1, 1, 1, 1, 0]>, <109, 1, 15, 14, 6, 0, 1, [0, 1, 1, 1, 1, 0]>, <110, 2, 16, 14, 6, 0, 1, [0, 1, 1, 1, 1, 0]>, <111, 3, 17, 14, 6, 0, 1, [0, 1, 1, 1, 1, 0]>, <112, 4, 18, 14, 6, 0, 1, [0, 1, 1, 1, 1, 0]>, <113, 5, 19, 14, 6, 0, 1, [0, 1, 1, 1, 1, 0]>, <114, 6, 20, 14, 6, 0, 1, [0, 1, 1, 1, 1, 0]>, <115, 7, 21, 14, 6, 0, 1, [0, 1, 1, 1, 1, 0]>, <116, 8, 22, 14, 6, 0, 1, [0, 1, 1, 1, 1, 0]>, <117, 9, 23, 14, 6, 0, 1, [0, 1, 1, 1, 1, 0]>, <118, 10, 24, 14, 6, 0, 1, [0, 1, 1, 1, 1, 0]>, <119, 11, 25, 14, 6, 0, 1, [0, 1, 1, 1, 1, 0]>, <120, 12, 26, 14, 6, 0, 1, [0, 1, 1, 1, 1, 0]>, <121, 13, 27, 14, 6, 0, 1, [0, 1, 1, 1, 1, 0]>, <122, 14, 28, 14, 6, 0, 1, [0, 1, 1, 1, 1, 0]>, <123, 15, 29, 14, 6, 0, 1, [0, 1, 1, 1, 1, 0]>, <124, 0, 12, 12, 7, 0, 1, [1, 0, 0, 1, 1, 1]>, <125, 1, 13, 12, 7, 0, 1, [1, 0, 0, 1, 1, 1]>, <126, 2, 14, 12, 7, 0, 1, [1, 0, 0, 1, 1, 1]>, <127, 3, 15, 12, 7, 0, 1, [1, 0, 0, 1, 1, 1]>, <128, 4, 16, 12, 7, 0, 1, [1, 0, 0, 1, 1, 1]>, <129, 5, 17, 12, 7, 0, 1, [1, 0, 0, 1, 1, 1]>, <130, 8, 20, 12, 7, 0, 1, [1, 0, 0, 1, 1, 1]>, <131, 9, 21, 12, 7, 0, 1, [1, 0, 0, 1, 1, 1]>, <132, 10, 22, 12, 7, 0, 1, [1, 0, 0, 1, 1, 1]>, <133, 11, 23, 12, 7, 0, 1, [1, 0, 0, 1, 1, 1]>, <134, 12, 24, 12, 7, 0, 1, [1, 0, 0, 1, 1, 1]>, <135, 13, 25, 12, 7, 0, 1, [1, 0, 0, 1, 1, 1]>, <136, 14, 26, 12, 7, 0, 1, [1, 0, 0, 1, 1, 1]>, <137, 15, 27, 12, 7, 0, 1, [1, 0, 0, 1, 1, 1]>, <138, 16, 28, 12, 7, 0, 1, [1, 0, 0, 1, 1, 1]>, <139, 17, 29, 12, 7, 0, 1, [1, 0, 0, 1, 1, 1]>, <140, 1, 12, 11, 8, 0, 1, [0, 1, 1, 1, 1, 0]>, <141, 2, 13, 11, 8, 0, 1, [0, 1, 1, 1, 1, 0]>, <142, 3, 14, 11, 8, 0, 1, [0, 1, 1, 1, 1, 0]>, <143, 4, 15, 11, 8, 0, 1, [0, 1, 1, 1, 1, 0]>, <144, 5, 16, 11, 8, 0, 1, [0, 1, 1, 1, 1, 0]>, <145, 9, 20, 11, 8, 0, 1, [0, 1, 1, 1, 1, 0]>, <146, 10, 21, 11, 8, 0, 1, [0, 1, 1, 1, 1, 0]>, <147, 11, 22, 11, 8, 0, 1, [0, 1, 1, 1, 1, 0]>, <148, 12, 23, 11, 8, 0, 1, [0, 1, 1, 1, 1, 0]>, <149, 13, 24, 11, 8, 0, 1, [0, 1, 1, 1, 1, 0]>, <150, 14, 25, 11, 8, 0, 1, [0, 1, 1, 1, 1, 0]>, <151, 15, 26, 11, 8, 0, 1, [0, 1, 1, 1, 1, 0]>, <152, 16, 27, 11, 8, 0, 1, [0, 1, 1, 1, 1, 0]>, <153, 17, 28, 11, 8, 0, 1, [0, 1, 1, 1, 1, 0]>, <154, 18, 29, 11, 8, 0, 1, [0, 1, 1, 1, 1, 0]>, <155, 1, 12, 11, 9, 0, 0, [0, 0, 1, 1, 1, 1]>, <156, 2, 13, 11, 9, 0, 0, [0, 0, 1, 1, 1, 1]>, <157, 3, 14, 11, 9, 0, 0, [0, 0, 1, 1, 1, 1]>, <158, 4, 15, 11, 9, 0, 0, [0, 0, 1, 1, 1, 1]>, <159, 5, 16, 11, 9, 0, 0, [0, 0, 1, 1, 1, 1]>, <160, 9, 20, 11, 9, 0, 0, [0, 0, 1, 1, 1, 1]>, <161, 10, 21, 11, 9, 0, 0, [0, 0, 1, 1, 1, 1]>, <162, 11, 22, 11, 9, 0, 0, [0, 0, 1, 1, 1, 1]>, <163, 12, 23, 11, 9, 0, 0, [0, 0, 1, 1, 1, 1]>, <164, 13, 24, 11, 9, 0, 0, [0, 0, 1, 1, 1, 1]>, <165, 14, 25, 11, 9, 0, 0, [0, 0, 1, 1, 1, 1]>, <166, 15, 26, 11, 9, 0, 0, [0, 0, 1, 1, 1, 1]>, <167, 16, 27, 11, 9, 0, 0, [0, 0, 1, 1, 1, 1]>, <168, 17, 28, 11, 9, 0, 0, [0, 0, 1, 1, 1, 1]>, <169, 18, 29, 11, 9, 0, 0, [0, 0, 1, 1, 1, 1]>, <170, 0, 13, 13, 10, 0, 0, [1, 0, 0, 1, 1, 1]>, <171, 1, 14, 13, 10, 0, 0, [1, 0, 0, 1, 1, 1]>, <172, 2, 15, 13, 10, 0, 0, [1, 0, 0, 1, 1, 1]>, <173, 3, 16, 13, 10, 0, 0, [1, 0, 0, 1, 1, 1]>, <174, 4, 17, 13, 10, 0, 0, [1, 0, 0, 1, 1, 1]>, <175, 5, 18, 13, 10, 0, 0, [1, 0, 0, 1, 1, 1]>, <176, 7, 20, 13, 10, 0, 0, [1, 0, 0, 1, 1, 1]>, <177, 8, 21, 13, 10, 0, 0, [1, 0, 0, 1, 1, 1]>, <178, 9, 22, 13, 10, 0, 0, [1, 0, 0, 1, 1, 1]>, <179, 10, 23, 13, 10, 0, 0, [1, 0, 0, 1, 1, 1]>, <180, 11, 24, 13, 10, 0, 0, [1, 0, 0, 1, 1, 1]>, <181, 12, 25, 13, 10, 0, 0, [1, 0, 0, 1, 1, 1]>, <182, 13, 26, 13, 10, 0, 0, [1, 0, 0, 1, 1, 1]>, <183, 14, 27, 13, 10, 0, 0, [1, 0, 0, 1, 1, 1]>, <184, 15, 28, 13, 10, 0, 0, [1, 0, 0, 1, 1, 1]>, <185, 16, 29, 13, 10, 0, 0, [1, 0, 0, 1, 1, 1]>, <186, 0, 14, 14, 11, 0, 0, [0, 1, 1, 1, 1, 0]>, <187, 1, 15, 14, 11, 0, 0, [0, 1, 1, 1, 1, 0]>, <188, 2, 16, 14, 11, 0, 0, [0, 1, 1, 1, 1, 0]>, <189, 3, 17, 14, 11, 0, 0, [0, 1, 1, 1, 1, 0]>, <190, 4, 18, 14, 11, 0, 0, [0, 1, 1, 1, 1, 0]>, <191, 5, 19, 14, 11, 0, 0, [0, 1, 1, 1, 1, 0]>, <192, 6, 20, 14, 11, 0, 0, [0, 1, 1, 1, 1, 0]>, <193, 7, 21, 14, 11, 0, 0, [0, 1, 1, 1, 1, 0]>, <194, 8, 22, 14, 11, 0, 0, [0, 1, 1, 1, 1, 0]>, <195, 9, 23, 14, 11, 0, 0, [0, 1, 1, 1, 1, 0]>, <196, 10, 24, 14, 11, 0, 0, [0, 1, 1, 1, 1, 0]>, <197, 11, 25, 14, 11, 0, 0, [0, 1, 1, 1, 1, 0]>, <198, 12, 26, 14, 11, 0, 0, [0, 1, 1, 1, 1, 0]>, <199, 13, 27, 14, 11, 0, 0, [0, 1, 1, 1, 1, 0]>, <200, 14, 28, 14, 11, 0, 0, [0, 1, 1, 1, 1, 0]>, <201, 15, 29, 14, 11, 0, 0, [0, 1, 1, 1, 1, 0]>, <202, 0, 14, 14, 12, 0, 1, [0, 0, 1, 1, 1, 1]>, <203, 1, 15, 14, 12, 0, 1, [0, 0, 1, 1, 1, 1]>, <204, 2, 16, 14, 12, 0, 1, [0, 0, 1, 1, 1, 1]>, <205, 3, 17, 14, 12, 0, 1, [0, 0, 1, 1, 1, 1]>, <206, 4, 18, 14, 12, 0, 1, [0, 0, 1, 1, 1, 1]>, <207, 5, 19, 14, 12, 0, 1, [0, 0, 1, 1, 1, 1]>, <208, 6, 20, 14, 12, 0, 1, [0, 0, 1, 1, 1, 1]>, <209, 7, 21, 14, 12, 0, 1, [0, 0, 1, 1, 1, 1]>, <210, 8, 22, 14, 12, 0, 1, [0, 0, 1, 1, 1, 1]>, <211, 9, 23, 14, 12, 0, 1, [0, 0, 1, 1, 1, 1]>, <212, 10, 24, 14, 12, 0, 1, [0, 0, 1, 1, 1, 1]>, <213, 11, 25, 14, 12, 0, 1, [0, 0, 1, 1, 1, 1]>, <214, 12, 26, 14, 12, 0, 1, [0, 0, 1, 1, 1, 1]>, <215, 13, 27, 14, 12, 0, 1, [0, 0, 1, 1, 1, 1]>, <216, 14, 28, 14, 12, 0, 1, [0, 0, 1, 1, 1, 1]>, <217, 15, 29, 14, 12, 0, 1, [0, 0, 1, 1, 1, 1]>, <218, 0, 14, 14, 13, 0, 0, [0, 0, 1, 1, 1, 1]>, <219, 1, 15, 14, 13, 0, 0, [0, 0, 1, 1, 1, 1]>, <220, 2, 16, 14, 13, 0, 0, [0, 0, 1, 1, 1, 1]>, <221, 3, 17, 14, 13, 0, 0, [0, 0, 1, 1, 1, 1]>, <222, 4, 18, 14, 13, 0, 0, [0, 0, 1, 1, 1, 1]>, <223, 5, 19, 14, 13, 0, 0, [0, 0, 1, 1, 1, 1]>, <224, 6, 20, 14, 13, 0, 0, [0, 0, 1, 1, 1, 1]>, <225, 7, 21, 14, 13, 0, 0, [0, 0, 1, 1, 1, 1]>, <226, 8, 22, 14, 13, 0, 0, [0, 0, 1, 1, 1, 1]>, <227, 9, 23, 14, 13, 0, 0, [0, 0, 1, 1, 1, 1]>, <228, 10, 24, 14, 13, 0, 0, [0, 0, 1, 1, 1, 1]>, <229, 11, 25, 14, 13, 0, 0, [0, 0, 1, 1, 1, 1]>, <230, 12, 26, 14, 13, 0, 0, [0, 0, 1, 1, 1, 1]>, <231, 13, 27, 14, 13, 0, 0, [0, 0, 1, 1, 1, 1]>, <232, 14, 28, 14, 13, 0, 0, [0, 0, 1, 1, 1, 1]>, <233, 15, 29, 14, 13, 0, 0, [0, 0, 1, 1, 1, 1]>, <234, 0, 15, 15, 14, 0, 1, [1, 1, 1, 1, 0, 0]>, <235, 1, 16, 15, 14, 0, 1, [1, 1, 1, 1, 0, 0]>, <236, 2, 17, 15, 14, 0, 1, [1, 1, 1, 1, 0, 0]>, <237, 3, 18, 15, 14, 0, 1, [1, 1, 1, 1, 0, 0]>, <238, 4, 19, 15, 14, 0, 1, [1, 1, 1, 1, 0, 0]>, <239, 5, 20, 15, 14, 0, 1, [1, 1, 1, 1, 0, 0]>, <240, 6, 21, 15, 14, 0, 1, [1, 1, 1, 1, 0, 0]>, <241, 7, 22, 15, 14, 0, 1, [1, 1, 1, 1, 0, 0]>, <242, 8, 23, 15, 14, 0, 1, [1, 1, 1, 1, 0, 0]>, <243, 9, 24, 15, 14, 0, 1, [1, 1, 1, 1, 0, 0]>, <244, 10, 25, 15, 14, 0, 1, [1, 1, 1, 1, 0, 0]>, <245, 11, 26, 15, 14, 0, 1, [1, 1, 1, 1, 0, 0]>, <246, 12, 27, 15, 14, 0, 1, [1, 1, 1, 1, 0, 0]>, <247, 13, 28, 15, 14, 0, 1, [1, 1, 1, 1, 0, 0]>, <248, 14, 29, 15, 14, 0, 1, [1, 1, 1, 1, 0, 0]>};
